sat
(:max-memory                   18.25
 :memory                       18.15
 :nlsat-irrational-assignments 1
 :nlsat-propagations           9
 :nlsat-stages                 4
 :num-allocs                   38239
 :rlimit-count                 3815
 :time                         0.00
 :total-time                   0.01)
